proyfinal/src/viki/013/experimentInOfficeAgust.take6.output/4be2855f-472c-48df-be6c-e2bab1da3dc0.als.dat
{'cnf.clauses': '118081',
 'cnf.totvars': '69608',
 'conflict literals': '6946',
 'conflicts': '690',
 'decisions': '12582',
 'memused.mb': '17.81',
 'outcome': 'UNSAT',
 'propagations': '828897',
 'restarts': '6',
 'solver.msecs': 69,
 'task.msecs': 122}
