proyfinal/src/viki/013/experimentInOfficeAgust.take6.output/4be2855f-472c-48df-be6c-e2bab1da3dc0.als.out
Reading from standard input... Use '--help' for help.
============================[ Problem Statistics ]=============================
|                                                                             |
|  Number of variables:         69608                                         |
|  Number of clauses:          118081                                         |
|  Parse time:                   0.03 s                                       |
|                                                                             |
============================[ Search Statistics ]==============================
| Conflicts |          ORIGINAL         |          LEARNT          | Progress |
|           |    Vars  Clauses Literals |    Limit  Clauses Lit/Cl |          |
===============================================================================
|       100 |   60617    91562   226431 |    33572       97      6 | 12.917 % |
|       250 |   60586    91427   226092 |    36930      231      9 | 12.961 % |
|       475 |   60060    90552   223908 |    40623      398     11 | 13.717 % |
===============================================================================
restarts              : 6
conflicts             : 690            (9932 /sec)
decisions             : 12582          (0.00 % random) (181114 /sec)
propagations          : 828897         (11931726 /sec)
conflict literals     : 6946           (24.83 % deleted)
Memory used           : 17.81 MB
CPU time              : 0.06947 s

UNSATISFIABLE
